BAYES
76
2 2 2 2 2 2 2 2 2 2 2 2 2 2 2 2 2 2 2 2 2 2 2 2 2 2 2 2 2 2 2 2 2 2 2 2 2 2 2 2 2 2 2 2 2 2 2 2 2 2 2 2 2 2 2 2 2 2 2 2 2 2 2 2 2 2 2 2 2 2 2 2 2 2 2 2
76
3 2 9 0
2 63 1
1  2
2 57 3
1  4
4 38 40 54 5
1  6
5 0 4 48 60 7
6 0 33 37 55 59 8
1  9
4 1 39 54 10
1  11
1  12
1  13
4 0 13 68 14
1  15
1  16
1  17
4 0 14 63 18
5 11 12 18 51 19
4 25 28 31 20
3 3 20 21
1  22
2 1 23
3 3 5 24
5 0 4 51 54 25
4 4 48 60 26
4 33 37 59 27
1  28
4 15 22 54 29
4 17 54 71 30
5 0 33 51 54 31
4 10 33 61 32
1  33
8 6 7 8 26 27 28 50 34
3 3 57 35
4 15 22 54 36
1  37
1  38
2 63 39
1  40
1  41
2 49 42
4 10 28 32 43
4 5 24 57 44
4 29 36 57 45
4 30 72 74 46
4 20 21 57 47
1  48
8 16 34 54 56 58 69 73 49
3 19 62 50
1  51
2 50 52
3 33 37 53
1  54
1  55
1  56
1  57
1  58
1  59
1  60
1  61
1  62
1  63
2 54 64
2 56 65
2 58 66
2 73 67
1  68
1  69
3 4 33 70
1  71
4 17 41 54 72
1  73
1  74
3 3 57 75

8
0.9999 0.0001 0.0 1.0 0.0 1.0 0.5 0.5
4
1.0 0.0 0.99000001 0.00999999
2
0.995 0.005
4
0.98 0.02 1.0 0.0
2
0.99 0.01
16
0.99 0.01 0.3 0.7 0.1 0.9 0.5 0.5 0.00999999 0.99000001 0.5 0.5 0.5 0.5 0.5 0.5
2
0.15 0.85
32
0.0 1.0 0.0 1.0 0.0 1.0 0.0 1.0 0.0 1.0 0.0 1.0 0.0 1.0 0.0 1.0 0.0 1.0 0.0 1.0 0.0 1.0 0.0 1.0 0.0 1.0 0.0 1.0 0.0 1.0 0.0 1.0
64
0.99 0.01 0.0 1.0 0.0 1.0 0.5 0.5 0.0 1.0 0.5 0.5 0.5 0.5 0.5 0.5 0.1 0.9 0.5 0.5 0.5 0.5 0.5 0.5 0.5 0.5 0.5 0.5 0.5 0.5 0.5 0.5 0.2 0.8 0.5 0.5 0.5 0.5 0.5 0.5 0.5 0.5 0.5 0.5 0.5 0.5 0.5 0.5 0.5 0.5 0.5 0.5 0.5 0.5 0.5 0.5 0.5 0.5 0.5 0.5 0.5 0.5 0.5 0.5
2
0.0 1.0
16
0.99900001 0.00099999 0.25 0.75 0.00099999 0.99900001 0.5 0.5 0.00099999 0.99900001 0.5 0.5 0.5 0.5 0.5 0.5
2
0.0 1.0
2
0.0 1.0
2
0.0 1.0
16
1.0 0.0 1.0 0.0 1.0 0.0 1.0 0.0 1.0 0.0 1.0 0.0 1.0 0.0 1.0 0.0
2
0.99 0.01
2
1.0 0.0
2
0.98 0.02
16
1.0 0.0 1.0 0.0 1.0 0.0 1.0 0.0 1.0 0.0 1.0 0.0 1.0 0.0 1.0 0.0
32
0.0 1.0 0.0 1.0 0.0 1.0 0.0 1.0 0.0 1.0 0.0 1.0 0.0 1.0 0.0 1.0 0.0 1.0 0.0 1.0 0.0 1.0 0.0 1.0 0.0 1.0 0.0 1.0 0.0 1.0 0.0 1.0
16
1.0 0.0 1.0 0.0 1.0 0.0 1.0 0.0 1.0 0.0 1.0 0.0 1.0 0.0 1.0 0.0
8
0.0 1.0 0.0 1.0 0.0 1.0 0.0 1.0
2
1.0 0.0
4
0.99 0.01 0.1 0.9
8
0.0 1.0 0.0 1.0 0.0 1.0 0.0 1.0
32
1.0 0.0 1.0 0.0 1.0 0.0 1.0 0.0 1.0 0.0 1.0 0.0 1.0 0.0 1.0 0.0 1.0 0.0 1.0 0.0 1.0 0.0 1.0 0.0 1.0 0.0 1.0 0.0 1.0 0.0 1.0 0.0
16
0.999 0.001 0.0 1.0 0.0 1.0 0.5 0.5 0.01 0.99 0.5 0.5 0.5 0.5 0.5 0.5
16
0.99 0.01 0.0 1.0 0.0 1.0 0.5 0.5 0.1 0.9 0.5 0.5 0.5 0.5 0.5 0.5
2
0.0 1.0
16
1.0 0.0 1.0 0.0 1.0 0.0 1.0 0.0 1.0 0.0 1.0 0.0 1.0 0.0 1.0 0.0
16
0.99000001 0.00999999 0.1 0.9 0.5 0.5 0.5 0.5 0.1 0.9 0.5 0.5 0.5 0.5 0.5 0.5
32
1.0 0.0 1.0 0.0 1.0 0.0 1.0 0.0 1.0 0.0 1.0 0.0 1.0 0.0 1.0 0.0 1.0 0.0 1.0 0.0 1.0 0.0 1.0 0.0 1.0 0.0 1.0 0.0 1.0 0.0 1.0 0.0
16
0.99900001 0.00099999 0.25 0.75 0.25 0.75 0.5 0.5 0.0 1.0 0.5 0.5 0.5 0.5 0.5 0.5
2
0.98 0.02
256
1.0 0.0 1.0 0.0 1.0 0.0 1.0 0.0 1.0 0.0 1.0 0.0 1.0 0.0 1.0 0.0 1.0 0.0 1.0 0.0 1.0 0.0 1.0 0.0 1.0 0.0 1.0 0.0 1.0 0.0 1.0 0.0 1.0 0.0 1.0 0.0 1.0 0.0 1.0 0.0 1.0 0.0 1.0 0.0 1.0 0.0 1.0 0.0 1.0 0.0 1.0 0.0 1.0 0.0 1.0 0.0 1.0 0.0 1.0 0.0 1.0 0.0 1.0 0.0 1.0 0.0 1.0 0.0 1.0 0.0 1.0 0.0 1.0 0.0 1.0 0.0 1.0 0.0 1.0 0.0 1.0 0.0 1.0 0.0 1.0 0.0 1.0 0.0 1.0 0.0 1.0 0.0 1.0 0.0 1.0 0.0 1.0 0.0 1.0 0.0 1.0 0.0 1.0 0.0 1.0 0.0 1.0 0.0 1.0 0.0 1.0 0.0 1.0 0.0 1.0 0.0 1.0 0.0 1.0 0.0 1.0 0.0 1.0 0.0 1.0 0.0 1.0 0.0 1.0 0.0 1.0 0.0 1.0 0.0 1.0 0.0 1.0 0.0 1.0 0.0 1.0 0.0 1.0 0.0 1.0 0.0 1.0 0.0 1.0 0.0 1.0 0.0 1.0 0.0 1.0 0.0 1.0 0.0 1.0 0.0 1.0 0.0 1.0 0.0 1.0 0.0 1.0 0.0 1.0 0.0 1.0 0.0 1.0 0.0 1.0 0.0 1.0 0.0 1.0 0.0 1.0 0.0 1.0 0.0 1.0 0.0 1.0 0.0 1.0 0.0 1.0 0.0 1.0 0.0 1.0 0.0 1.0 0.0 1.0 0.0 1.0 0.0 1.0 0.0 1.0 0.0 1.0 0.0 1.0 0.0 1.0 0.0 1.0 0.0 1.0 0.0 1.0 0.0 1.0 0.0 1.0 0.0 1.0 0.0 1.0 0.0 1.0 0.0 1.0 0.0 1.0 0.0 1.0 0.0 1.0 0.0 1.0 0.0 1.0 0.0 1.0 0.0 1.0 0.0 1.0 0.0 1.0 0.0 1.0 0.0 1.0 0.0 1.0 0.0 1.0 0.0
8
1.0 0.0 1.0 0.0 0.05 0.95 1.0 0.0
16
1.0 0.0 1.0 0.0 1.0 0.0 1.0 0.0 1.0 0.0 1.0 0.0 1.0 0.0 1.0 0.0
2
0.0 1.0
2
0.95 0.05
4
0.0 1.0 0.0 1.0
2
0.98 0.02
2
0.0 1.0
4
1.0 0.0 0.0 1.0
16
1.0 0.0 1.0 0.0 1.0 0.0 0.0 1.0 0.0 1.0 0.0 1.0 1.0 0.0 0.0 1.0
16
0.0 1.0 0.0 1.0 1.0 0.0 0.0 1.0 0.0 1.0 1.0 0.0 1.0 0.0 1.0 0.0
16
0.0 1.0 0.0 1.0 1.0 0.0 0.0 1.0 0.0 1.0 1.0 0.0 1.0 0.0 1.0 0.0
16
0.0 1.0 0.0 1.0 1.0 0.0 0.0 1.0 0.0 1.0 1.0 0.0 1.0 0.0 1.0 0.0
16
1.0 0.0 1.0 0.0 0.0 1.0 1.0 0.0 1.0 0.0 0.0 1.0 0.0 1.0 0.0 1.0
2
0.0 1.0
256
0.99 0.01 0.01 0.99 0.0 1.0 0.5 0.5 0.0 1.0 0.5 0.5 0.5 0.5 0.5 0.5 0.0 1.0 0.5 0.5 0.5 0.5 0.5 0.5 0.5 0.5 0.5 0.5 0.5 0.5 0.5 0.5 0.1 0.9 0.5 0.5 0.5 0.5 0.5 0.5 0.5 0.5 0.5 0.5 0.5 0.5 0.5 0.5 0.5 0.5 0.5 0.5 0.5 0.5 0.5 0.5 0.5 0.5 0.5 0.5 0.5 0.5 0.5 0.5 0.0 1.0 0.5 0.5 0.5 0.5 0.5 0.5 0.5 0.5 0.5 0.5 0.5 0.5 0.5 0.5 0.5 0.5 0.5 0.5 0.5 0.5 0.5 0.5 0.5 0.5 0.5 0.5 0.5 0.5 0.5 0.5 0.5 0.5 0.5 0.5 0.5 0.5 0.5 0.5 0.5 0.5 0.5 0.5 0.5 0.5 0.5 0.5 0.5 0.5 0.5 0.5 0.5 0.5 0.5 0.5 0.5 0.5 0.5 0.5 0.5 0.5 0.5 0.5 0.02 0.98 0.5 0.5 0.5 0.5 0.5 0.5 0.5 0.5 0.5 0.5 0.5 0.5 0.5 0.5 0.5 0.5 0.5 0.5 0.5 0.5 0.5 0.5 0.5 0.5 0.5 0.5 0.5 0.5 0.5 0.5 0.5 0.5 0.5 0.5 0.5 0.5 0.5 0.5 0.5 0.5 0.5 0.5 0.5 0.5 0.5 0.5 0.5 0.5 0.5 0.5 0.5 0.5 0.5 0.5 0.5 0.5 0.5 0.5 0.5 0.5 0.5 0.5 0.5 0.5 0.5 0.5 0.5 0.5 0.5 0.5 0.5 0.5 0.5 0.5 0.5 0.5 0.5 0.5 0.5 0.5 0.5 0.5 0.5 0.5 0.5 0.5 0.5 0.5 0.5 0.5 0.5 0.5 0.5 0.5 0.5 0.5 0.5 0.5 0.5 0.5 0.5 0.5 0.5 0.5 0.5 0.5 0.5 0.5 0.5 0.5 0.5 0.5 0.5 0.5 0.5 0.5 0.5 0.5 0.5 0.5 0.5 0.5 0.5 0.5 0.5 0.5
8
0.99 0.01 0.0 1.0 0.0 1.0 0.5 0.5
2
0.0 1.0
4
0.8 0.2 0.2 0.8
8
0.9999 0.0001 0.7 0.3 0.25 0.75 0.5 0.5
2
0.95 0.05
2
0.0 1.0
2
0.9 0.1
2
0.4 0.6
2
0.98 0.02
2
0.97 0.03
2
1.0 0.0
2
0.99 0.01
2
0.99 0.01
2
0.95 0.05
4
0.99900001 0.00099999 0.2 0.8
4
0.99000001 0.00999999 0.00999999 0.99000001
4
0.99900001 0.00099999 0.00099999 0.99900001
4
0.99900001 0.00099999 0.00099999 0.99900001
2
0.9999 0.0001
2
0.94 0.06
8
1.0 0.0 0.5 0.5 0.5 0.5 0.5 0.5
2
0.95 0.05
16
0.99000001 0.00999999 0.5 0.5 0.0 1.0 0.5 0.5 0.1 0.9 0.5 0.5 0.5 0.5 0.5 0.5
2
0.0 1.0
2
0.9 0.1
8
0.99900001 0.00099999 1.0 0.0 0.00099999 0.99900001 1.0 0.0